c A SAT instance generated from a 3-CNF formula that had 24 clauses and 8 variables
p cnf 8 24
8 -3 -2 0
-6 -8 7 0
8 7 5 0
5 -2 7 0
2 -1 -5 0
4 2 -1 0
-5 -6 7 0
-4 -1 6 0
-1 -3 -2 0
-1 3 6 0
5 6 7 0
5 3 4 0
8 -6 -1 0
-1 -7 3 0
8 -1 -6 0
-2 -8 -3 0
-8 -3 1 0
-3 5 -2 0
8 4 3 0
7 8 5 0
2 -8 -5 0
-6 7 8 0
5 -6 -7 0
3 7 -4 0
